% Logging successfully configured
%%%mzn-stat: initTime=0.013048581
%%%mzn-stat: objective=1144
%%%mzn-stat: nodes=1367
%%%mzn-stat: restarts=0
%%%mzn-stat: peakDepth=289
%%%mzn-stat: solveTime=0.024568632
%%%mzn-stat: variables=736
%%%mzn-stat: propagators=439
%%%mzn-stat: failures=97
%%%mzn-stat: propagations=9549
%%%mzn-stat: nogoods=97
%%%mzn-stat: numAtomicConstraintsPropagated=0
%%%mzn-stat: allDifferentNumber1TotalHallSetSize=606
%%%mzn-stat: allDifferentNumber1NumberOfConflicts=96
%%%mzn-stat: allDifferentNumber1MaxHallSetSize=46
%%%mzn-stat: allDifferentNumber1PropagationsTotal=1328
%%%mzn-stat: allDifferentNumber1PropagationsThatFoundConflict=96
%%%mzn-stat: circuitNumber2PropagationsThatFoundConflict=1
%%%mzn-stat: circuitNumber2TotalFixedEdgesAtConflict=44
%%%mzn-stat: circuitNumber2NumberOfConflicts=1
%%%mzn-stat: circuitNumber2PropagationsThatPruned=13
%%%mzn-stat: circuitNumber2PropagationsTotal=1042
%%%mzn-stat: AverageConflictSize=4.123711340206185
%%%mzn-stat: NumUnitNogoodsLearned=0
%%%mzn-stat: AverageLearnedNogoodLength=3.948453608247423
%%%mzn-stat: AverageBacktrackAmount=0
%%%mzn-stat: AverageLbd=3.9072164948453607
%%%mzn-stat: 2AutonomousSearchNumBackupCalled=258
%%%mzn-stat: 2AutonomousSearchNumPredicatesRemoved=0
%%%mzn-stat: 2AutonomousSearchNumCalls=259
%%%mzn-stat: 2AutonomousSearchNumPredicatesAdded=208
%%%mzn-stat: 2AutonomousSearchAverageSizeOfHeap=0.803088803088803
%%%mzn-stat: 2AutonomousSearchNumAssignedPredicatesEncountered=208
%%%mzn-stat-end
maxleg = 1144;
succ = array1d(1..50,[12, 4, 2, 10, 26, 1, 21, 5, 28, 7, 3, 44, 19, 8, 13, 17, 48, 22, 23, 50, 40, 37, 41, 31, 29, 15, 9, 42, 11, 47, 20, 46, 25, 36, 34, 49, 16, 30, 38, 35, 43, 14, 24, 32, 6, 27, 18, 45, 39, 33]);
% time elapsed: 9.54 s
----------
==========
% time elapsed: 9.54 s
%%%mzn-stat: initTime=0.013048581
%%%mzn-stat: objective=1144
%%%mzn-stat: nodes=1367
%%%mzn-stat: restarts=0
%%%mzn-stat: peakDepth=289
%%%mzn-stat: solveTime=0.024572653
%%%mzn-stat: variables=736
%%%mzn-stat: propagators=439
%%%mzn-stat: failures=97
%%%mzn-stat: propagations=9549
%%%mzn-stat: nogoods=97
%%%mzn-stat: numAtomicConstraintsPropagated=0
%%%mzn-stat: allDifferentNumber1TotalHallSetSize=606
%%%mzn-stat: allDifferentNumber1NumberOfConflicts=96
%%%mzn-stat: allDifferentNumber1MaxHallSetSize=46
%%%mzn-stat: allDifferentNumber1PropagationsTotal=1328
%%%mzn-stat: allDifferentNumber1PropagationsThatFoundConflict=96
%%%mzn-stat: circuitNumber2PropagationsThatFoundConflict=1
%%%mzn-stat: circuitNumber2TotalFixedEdgesAtConflict=44
%%%mzn-stat: circuitNumber2NumberOfConflicts=1
%%%mzn-stat: circuitNumber2PropagationsThatPruned=13
%%%mzn-stat: circuitNumber2PropagationsTotal=1042
%%%mzn-stat: AverageConflictSize=4.123711340206185
%%%mzn-stat: NumUnitNogoodsLearned=0
%%%mzn-stat: AverageLearnedNogoodLength=3.948453608247423
%%%mzn-stat: AverageBacktrackAmount=0
%%%mzn-stat: AverageLbd=3.9072164948453607
%%%mzn-stat: 2AutonomousSearchNumBackupCalled=258
%%%mzn-stat: 2AutonomousSearchNumPredicatesRemoved=0
%%%mzn-stat: 2AutonomousSearchNumCalls=259
%%%mzn-stat: 2AutonomousSearchNumPredicatesAdded=208
%%%mzn-stat: 2AutonomousSearchAverageSizeOfHeap=0.803088803088803
%%%mzn-stat: 2AutonomousSearchNumAssignedPredicatesEncountered=208
%%%mzn-stat-end
